(declare-const BAV1 Bool)
(declare-const GEN3 (_ BitVec 52))
(declare-const GEN2 (_ BitVec 11))
(declare-const GEN1 (_ BitVec 1))
(set-info :source "Handcrafted by C.M. Wintersteiger")
(declare-fun y () Real)
(assert (= y (fp.to_real (fp GEN1 GEN2 GEN3))))
(assert (= BAV1 (= y (fp.to_real (fp GEN1 GEN2 GEN3)))))
(check-sat)
(get-model)
(get-value (y))
(check-sat-using smt)
(get-value (y))
(exit)